*SPEF "ieee 1481-1999"
*DESIGN "layer_output"
*DATE "00:39:13 Friday August 28, 2026"
*VENDOR "The OpenROAD Project"
*PROGRAM "OpenROAD"
*VERSION "26Q1-1024-gdcf36133a"
*DESIGN_FLOW "NAME_SCOPE LOCAL" "PIN_CAP NONE"
*DIVIDER /
*DELIMITER :
*BUS_DELIMITER []
*T_UNIT 1 NS
*C_UNIT 1 PF
*R_UNIT 1 OHM
*L_UNIT 1 HENRY

*NAME_MAP
*1 Iext1
*2 Iext2
*5 nvout_1
*6 nvout_2
*8 vout_1
*9 vout_2
*10 x1
*11 x2

*PORTS
Iext1 I
Iext2 I
nvout_1 O
nvout_2 O
vout_1 O
vout_2 O

*D_NET *1 0.0112296
*CONN
*P Iext1 I
*I *10:Iin I *D neurona_lvs
*CAP
1 Iext1 0.00553077
2 *10:Iin 8.40438e-05
3 *1:9 0.00561481
*RES
1 Iext1 *1:9 46.4432 
2 *1:9 *10:Iin 4.75909 
*END

*D_NET *2 0.0223147
*CONN
*P Iext2 I
*I *11:Iin I *D neurona_lvs
*CAP
1 Iext2 0.0100058
2 *11:Iin 0.00115158
3 *2:5 0.0111574
*RES
1 Iext2 *2:5 78.345 
2 *2:5 *11:Iin 18.118 
*END

*D_NET *5 0.0221883
*CONN
*P nvout_1 O
*I *10:spike_neg I *D neurona_lvs
*CAP
1 nvout_1 0.00208691
2 *10:spike_neg 0.000104243
3 *5:13 0.00886817
4 *5:11 0.0108508
5 *5:11 *11:spike 0
6 *5:13 *11:spike 0
7 *5:13 *11:spike_neg 0.000278143
*RES
1 nvout_1 *5:11 26.0036 
2 *5:11 *5:13 68.85 
3 *5:13 *10:spike_neg 0.914464 
*END

*D_NET *6 0.0104441
*CONN
*P nvout_2 O
*I *11:spike_neg I *D neurona_lvs
*CAP
1 nvout_2 0.00508298
2 *11:spike_neg 0.00508298
3 *5:13 *11:spike_neg 0.000278143
*RES
1 nvout_2 *11:spike_neg 49.148 
*END

*D_NET *8 0.0230991
*CONN
*P vout_1 O
*I *10:spike I *D neurona_lvs
*CAP
1 vout_1 0.00920567
2 *10:spike 0.00234389
3 *8:5 0.0115496
*RES
1 vout_1 *8:5 71.9936 
2 *8:5 *10:spike 27.63 
*END

*D_NET *9 0.00690932
*CONN
*P vout_2 O
*I *11:spike I *D neurona_lvs
*CAP
1 vout_2 0.00345466
2 *11:spike 0.00345466
3 *5:11 *11:spike 0
4 *5:13 *11:spike 0
*RES
1 vout_2 *11:spike 44.4986 
*END
