*SPEF "ieee 1481-1999"
*DESIGN "layer_output"
*DATE "00:37:46 Friday August 28, 2026"
*VENDOR "The OpenROAD Project"
*PROGRAM "OpenROAD"
*VERSION "26Q1-1024-gdcf36133a"
*DESIGN_FLOW "NAME_SCOPE LOCAL" "PIN_CAP NONE"
*DIVIDER /
*DELIMITER :
*BUS_DELIMITER []
*T_UNIT 1 NS
*C_UNIT 1 PF
*R_UNIT 1 OHM
*L_UNIT 1 HENRY

*NAME_MAP
*1 Iext1
*2 Iext2
*5 nvout_1
*6 nvout_2
*8 vout_1
*9 vout_2
*10 x1
*11 x2

*PORTS
Iext1 I
Iext2 I
nvout_1 O
nvout_2 O
vout_1 O
vout_2 O

*D_NET *1 0.00861717
*CONN
*P Iext1 I
*I *10:Iin I *D neurona_lvs
*CAP
1 Iext1 0.00430858
2 *10:Iin 0.00430858
*RES
1 Iext1 *10:Iin 41.6623 
*END

*D_NET *2 0.0129179
*CONN
*P Iext2 I
*I *11:Iin I *D neurona_lvs
*CAP
1 Iext2 0.00549791
2 *11:Iin 0.00096102
3 *2:7 0.00645893
4 *11:Iin *11:spike_neg 0
*RES
1 Iext2 *2:7 47.925 
2 *2:7 *11:Iin 12.69 
*END

*D_NET *5 0.0142177
*CONN
*P nvout_1 O
*I *10:spike_neg I *D neurona_lvs
*CAP
1 nvout_1 0.00650193
2 *10:spike_neg 0.000606932
3 *5:5 0.00710886
*RES
1 nvout_1 *5:5 51.165 
2 *5:5 *10:spike_neg 14.13 
*END

*D_NET *6 0.00866578
*CONN
*P nvout_2 O
*I *11:spike_neg I *D neurona_lvs
*CAP
1 nvout_2 0.00433289
2 *11:spike_neg 0.00433289
3 *11:Iin *11:spike_neg 0
*RES
1 nvout_2 *11:spike_neg 42.8995 
*END

*D_NET *8 0.0173014
*CONN
*P vout_1 O
*I *10:spike I *D neurona_lvs
*CAP
1 vout_1 0.00628996
2 *10:spike 0.00236074
3 *8:5 0.00865071
*RES
1 vout_1 *8:5 49.185 
2 *8:5 *10:spike 31.86 
*END

*D_NET *9 0.00524483
*CONN
*P vout_2 O
*I *11:spike I *D neurona_lvs
*CAP
1 vout_2 0.00262242
2 *11:spike 0.00262242
*RES
1 vout_2 *11:spike 38.07 
*END
