*SPEF "ieee 1481-1999"
*DESIGN "layer_output"
*DATE "00:37:46 Friday August 28, 2026"
*VENDOR "The OpenROAD Project"
*PROGRAM "OpenROAD"
*VERSION "26Q1-1024-gdcf36133a"
*DESIGN_FLOW "NAME_SCOPE LOCAL" "PIN_CAP NONE"
*DIVIDER /
*DELIMITER :
*BUS_DELIMITER []
*T_UNIT 1 NS
*C_UNIT 1 PF
*R_UNIT 1 OHM
*L_UNIT 1 HENRY

*NAME_MAP
*1 Iext1
*2 Iext2
*5 nvout_1
*6 nvout_2
*8 vout_1
*9 vout_2
*10 x1
*11 x2

*PORTS
Iext1 I
Iext2 I
nvout_1 O
nvout_2 O
vout_1 O
vout_2 O

*D_NET *1 0.00918594
*CONN
*P Iext1 I
*I *10:Iin I *D neurona_lvs
*CAP
1 Iext1 0.00459297
2 *10:Iin 0.00459297
*RES
1 Iext1 *10:Iin 46.746 
*END

*D_NET *2 0.0136643
*CONN
*P Iext2 I
*I *11:Iin I *D neurona_lvs
*CAP
1 Iext2 0.00582484
2 *11:Iin 0.00100731
3 *2:5 0.00683216
4 *11:Iin *11:spike_neg 0
*RES
1 Iext2 *2:5 50.18 
2 *2:5 *11:Iin 18.464 
*END

*D_NET *5 0.0150618
*CONN
*P nvout_1 O
*I *10:spike_neg I *D neurona_lvs
*CAP
1 nvout_1 0.00689367
2 *10:spike_neg 0.000637214
3 *5:5 0.00753088
*RES
1 nvout_1 *5:5 59.124 
2 *5:5 *10:spike_neg 14.928 
*END

*D_NET *6 0.00920721
*CONN
*P nvout_2 O
*I *11:spike_neg I *D neurona_lvs
*CAP
1 nvout_2 0.0046036
2 *11:spike_neg 0.0046036
3 *11:Iin *11:spike_neg 0
*RES
1 nvout_2 *11:spike_neg 48.1727 
*END

*D_NET *8 0.0183731
*CONN
*P vout_1 O
*I *10:spike I *D neurona_lvs
*CAP
1 vout_1 0.00667729
2 *10:spike 0.00250925
3 *8:5 0.00918654
*RES
1 vout_1 *8:5 56.836 
2 *8:5 *10:spike 34.716 
*END

*D_NET *9 0.00559754
*CONN
*P vout_2 O
*I *11:spike I *D neurona_lvs
*CAP
1 vout_2 0.00279877
2 *11:spike 0.00279877
*RES
1 vout_2 *11:spike 41.192 
*END
