*SPEF "ieee 1481-1999"
*DESIGN "layer_output"
*DATE "00:45:16 Friday August 28, 2026"
*VENDOR "The OpenROAD Project"
*PROGRAM "OpenROAD"
*VERSION "26Q1-1024-gdcf36133a"
*DESIGN_FLOW "NAME_SCOPE LOCAL" "PIN_CAP NONE"
*DIVIDER /
*DELIMITER :
*BUS_DELIMITER []
*T_UNIT 1 NS
*C_UNIT 1 PF
*R_UNIT 1 OHM
*L_UNIT 1 HENRY

*NAME_MAP
*1 Iext1
*2 Iext2
*5 nvout_1
*6 nvout_2
*8 vout_1
*9 vout_2
*10 x1
*11 x2

*PORTS
Iext1 I
Iext2 I
nvout_1 O
nvout_2 O
vout_1 O
vout_2 O

*D_NET *1 0.00918353
*CONN
*P Iext1 I
*I *10:Iin I *D neurona_lvs
*CAP
1 Iext1 0.00459177
2 *10:Iin 0.00459177
*RES
1 Iext1 *10:Iin 46.8408 
*END

*D_NET *2 0.00926919
*CONN
*P Iext2 I
*I *11:Iin I *D neurona_lvs
*CAP
1 Iext2 0.00463459
2 *11:Iin 0.00463459
*RES
1 Iext2 *11:Iin 46.8408 
*END

*D_NET *5 0.0112537
*CONN
*P nvout_1 O
*I *10:spike_neg I *D neurona_lvs
*CAP
1 nvout_1 0.00338588
2 *10:spike_neg 0.00224099
3 *5:14 0.00562687
*RES
1 nvout_1 *5:14 44.624 
2 *5:14 *10:spike_neg 23.9276 
*END

*D_NET *6 0.0117586
*CONN
*P nvout_2 O
*I *11:spike_neg I *D neurona_lvs
*CAP
1 nvout_2 0.00246669
2 *11:spike_neg 0.0034126
3 *6:8 0.00587929
4 *11:spike_neg *11:spike 0
*RES
1 nvout_2 *6:8 25.328 
2 *6:8 *11:spike_neg 32.7156 
*END

*D_NET *8 0.0109894
*CONN
*P vout_1 O
*I *10:spike I *D neurona_lvs
*CAP
1 vout_1 0.00486883
2 *10:spike 0.000625868
3 *8:12 0.0054947
*RES
1 vout_1 *8:12 46.024 
2 *8:12 *10:spike 10.532 
*END

*D_NET *9 0.0119293
*CONN
*P vout_2 O
*I *11:spike I *D neurona_lvs
*CAP
1 vout_2 0.00143739
2 *11:spike 0.00452727
3 *9:8 0.00596466
4 *11:spike_neg *11:spike 0
*RES
1 vout_2 *9:8 19.088 
2 *9:8 *11:spike 43.1007 
*END
