*SPEF "ieee 1481-1999"
*DESIGN "layer_output"
*DATE "00:37:46 Friday August 28, 2026"
*VENDOR "The OpenROAD Project"
*PROGRAM "OpenROAD"
*VERSION "26Q1-1024-gdcf36133a"
*DESIGN_FLOW "NAME_SCOPE LOCAL" "PIN_CAP NONE"
*DIVIDER /
*DELIMITER :
*BUS_DELIMITER []
*T_UNIT 1 NS
*C_UNIT 1 PF
*R_UNIT 1 OHM
*L_UNIT 1 HENRY

*NAME_MAP
*1 Iext1
*2 Iext2
*5 nvout_1
*6 nvout_2
*8 vout_1
*9 vout_2
*10 x1
*11 x2

*PORTS
Iext1 I
Iext2 I
nvout_1 O
nvout_2 O
vout_1 O
vout_2 O

*D_NET *1 0.00813306
*CONN
*P Iext1 I
*I *10:Iin I *D neurona_lvs
*CAP
1 Iext1 0.00406653
2 *10:Iin 0.00406653
*RES
1 Iext1 *10:Iin 36.5786 
*END

*D_NET *2 0.0122668
*CONN
*P Iext2 I
*I *11:Iin I *D neurona_lvs
*CAP
1 Iext2 0.00613338
2 *11:Iin 0
3 *2:9 0.00613338
4 *2:9 *11:spike_neg 0
*RES
1 Iext2 *2:9 48.086 
2 *2:9 *11:Iin 4.5 
*END

*D_NET *5 0.0134862
*CONN
*P nvout_1 O
*I *10:spike_neg I *D neurona_lvs
*CAP
1 nvout_1 0.00616364
2 *10:spike_neg 0.000579481
3 *5:7 0.00674312
*RES
1 nvout_1 *5:7 47.706 
2 *5:7 *10:spike_neg 8.832 
*END

*D_NET *6 0.00819992
*CONN
*P nvout_2 O
*I *11:spike_neg I *D neurona_lvs
*CAP
1 nvout_2 0.00409996
2 *11:spike_neg 0.00409996
3 *2:9 *11:spike_neg 0
*RES
1 nvout_2 *11:spike_neg 37.6262 
*END

*D_NET *8 0.0163772
*CONN
*P vout_1 O
*I *10:spike I *D neurona_lvs
*CAP
1 vout_1 0.00595717
2 *10:spike 0.00223146
3 *8:7 0.00818862
*RES
1 vout_1 *8:7 46.034 
2 *8:7 *10:spike 24.504 
*END

*D_NET *9 0.0049472
*CONN
*P vout_2 O
*I *11:spike I *D neurona_lvs
*CAP
1 vout_2 0.0024736
2 *11:spike 0.0024736
*RES
1 vout_2 *11:spike 34.948 
*END
