*SPEF "ieee 1481-1999"
*DESIGN "layer_output"
*DATE "00:39:13 Friday August 28, 2026"
*VENDOR "The OpenROAD Project"
*PROGRAM "OpenROAD"
*VERSION "26Q1-1024-gdcf36133a"
*DESIGN_FLOW "NAME_SCOPE LOCAL" "PIN_CAP NONE"
*DIVIDER /
*DELIMITER :
*BUS_DELIMITER []
*T_UNIT 1 NS
*C_UNIT 1 PF
*R_UNIT 1 OHM
*L_UNIT 1 HENRY

*NAME_MAP
*1 Iext1
*2 Iext2
*5 nvout_1
*6 nvout_2
*8 vout_1
*9 vout_2
*10 x1
*11 x2

*PORTS
Iext1 I
Iext2 I
nvout_1 O
nvout_2 O
vout_1 O
vout_2 O

*D_NET *1 0.0119344
*CONN
*P Iext1 I
*I *10:Iin I *D neurona_lvs
*CAP
1 Iext1 0.00419936
2 *10:Iin 0.00176783
3 *1:7 0.00596719
*RES
1 Iext1 *1:7 40.12 
2 *1:7 *10:Iin 17.65 
*END

*D_NET *2 0.0236664
*CONN
*P Iext2 I
*I *11:Iin I *D neurona_lvs
*CAP
1 Iext2 0.0106191
2 *11:Iin 0.00121403
3 *2:5 0.0118332
*RES
1 Iext2 *2:5 90.532 
2 *2:5 *11:Iin 19.5394 
*END

*D_NET *5 0.0235517
*CONN
*P nvout_1 O
*I *10:spike_neg I *D neurona_lvs
*CAP
1 nvout_1 0.00220377
2 *10:spike_neg 0.000109205
3 *5:13 0.00941767
4 *5:11 0.0115122
5 *5:11 *11:spike 0
6 *5:13 *11:spike 0
7 *5:13 *11:spike_neg 0.000308865
*RES
1 nvout_1 *5:11 28.6486 
2 *5:11 *5:13 79.56 
3 *5:13 *10:spike_neg 1.05671 
*END

*D_NET *6 0.0111095
*CONN
*P nvout_2 O
*I *11:spike_neg I *D neurona_lvs
*CAP
1 nvout_2 0.00532689
2 *11:spike_neg 7.34125e-05
3 *6:9 0.00540031
4 *5:13 *11:spike_neg 0.000308865
*RES
1 nvout_2 *6:9 49.8013 
2 *6:9 *11:spike_neg 5.592 
*END

*D_NET *8 0.024511
*CONN
*P vout_1 O
*I *10:spike I *D neurona_lvs
*CAP
1 vout_1 0.0097723
2 *10:spike 0.00248321
3 *8:5 0.0122555
*RES
1 vout_1 *8:5 83.1926 
2 *8:5 *10:spike 30.528 
*END

*D_NET *9 0.0073722
*CONN
*P vout_2 O
*I *11:spike I *D neurona_lvs
*CAP
1 vout_2 0.0036861
2 *11:spike 0.0036861
3 *5:11 *11:spike 0
4 *5:13 *11:spike 0
*RES
1 vout_2 *11:spike 48.6206 
*END
