*SPEF "ieee 1481-1999"
*DESIGN "layer_output"
*DATE "00:33:42 Friday August 28, 2026"
*VENDOR "The OpenROAD Project"
*PROGRAM "OpenROAD"
*VERSION "26Q1-1024-gdcf36133a"
*DESIGN_FLOW "NAME_SCOPE LOCAL" "PIN_CAP NONE"
*DIVIDER /
*DELIMITER :
*BUS_DELIMITER []
*T_UNIT 1 NS
*C_UNIT 1 PF
*R_UNIT 1 OHM
*L_UNIT 1 HENRY

*NAME_MAP
*1 Iext1
*2 Iext2
*5 nvout_1
*6 nvout_2
*8 vout_1
*9 vout_2
*10 x1
*11 x2

*PORTS
Iext1 I
Iext2 I
nvout_1 O
nvout_2 O
vout_1 O
vout_2 O

*D_NET *1 0.0105918
*CONN
*P Iext1 I
*I *10:Iin I *D neurona_lvs
*CAP
1 Iext1 0.00529589
2 *10:Iin 0.00529589
*RES
1 Iext1 *10:Iin 44.6346 
*END

*D_NET *2 0.0150388
*CONN
*P Iext2 I
*I *11:Iin I *D neurona_lvs
*CAP
1 Iext2 0.00569561
2 *11:Iin 0.000528363
3 *2:7 0.00622397
4 *11:Iin *11:spike_neg 0.00259084
*RES
1 Iext2 *2:7 43.906 
2 *2:7 *11:Iin 11.416 
*END

*D_NET *5 0.0205365
*CONN
*P nvout_1 O
*I *10:spike_neg I *D neurona_lvs
*CAP
1 nvout_1 0.00147054
2 *10:spike_neg 0.00328385
3 *5:11 0.00475439
4 *10:spike_neg *10:spike 0.00873551
5 *10:spike_neg *11:spike 0.00229224
*RES
1 nvout_1 *5:11 19.906 
2 *5:11 *10:spike_neg 45.1122 
*END

*D_NET *6 0.00919702
*CONN
*P nvout_2 O
*I *11:spike_neg I *D neurona_lvs
*CAP
1 nvout_2 0.00330309
2 *11:spike_neg 0.00330309
3 *11:Iin *11:spike_neg 0.00259084
*RES
1 nvout_2 *11:spike_neg 34.7002 
*END

*D_NET *8 0.0210793
*CONN
*P vout_1 O
*I *10:spike I *D neurona_lvs
*CAP
1 vout_1 0.00454329
2 *10:spike 0.00162859
3 *8:11 0.00617189
4 *10:spike_neg *10:spike 0.00873551
*RES
1 vout_1 *8:11 40.578 
2 *8:11 *10:spike 21.546 
*END

*D_NET *9 0.00530246
*CONN
*P vout_2 O
*I *11:spike I *D neurona_lvs
*CAP
1 vout_2 0.00150511
2 *11:spike 0.00150511
3 *10:spike_neg *11:spike 0.00229224
*RES
1 vout_2 *11:spike 21.7042 
*END
