*SPEF "ieee 1481-1999"
*DESIGN "layer_output"
*DATE "00:45:16 Friday August 28, 2026"
*VENDOR "The OpenROAD Project"
*PROGRAM "OpenROAD"
*VERSION "26Q1-1024-gdcf36133a"
*DESIGN_FLOW "NAME_SCOPE LOCAL" "PIN_CAP NONE"
*DIVIDER /
*DELIMITER :
*BUS_DELIMITER []
*T_UNIT 1 NS
*C_UNIT 1 PF
*R_UNIT 1 OHM
*L_UNIT 1 HENRY

*NAME_MAP
*1 Iext1
*2 Iext2
*5 nvout_1
*6 nvout_2
*8 vout_1
*9 vout_2
*10 x1
*11 x2

*PORTS
Iext1 I
Iext2 I
nvout_1 O
nvout_2 O
vout_1 O
vout_2 O

*D_NET *1 0.00859268
*CONN
*P Iext1 I
*I *10:Iin I *D neurona_lvs
*CAP
1 Iext1 0.00429634
2 *10:Iin 0.00429634
*RES
1 Iext1 *10:Iin 42.3502 
*END

*D_NET *2 0.00866861
*CONN
*P Iext2 I
*I *11:Iin I *D neurona_lvs
*CAP
1 Iext2 0.00433431
2 *11:Iin 0.00433431
*RES
1 Iext2 *11:Iin 42.3502 
*END

*D_NET *5 0.0105416
*CONN
*P nvout_1 O
*I *10:spike_neg I *D neurona_lvs
*CAP
1 nvout_1 0.00315501
2 *10:spike_neg 0.00211578
3 *5:14 0.00527078
*RES
1 nvout_1 *5:14 41.04 
2 *5:14 *10:spike_neg 21.3123 
*END

*D_NET *6 0.0109577
*CONN
*P nvout_2 O
*I *11:spike_neg I *D neurona_lvs
*CAP
1 nvout_2 0.00541762
2 *11:spike_neg 6.12486e-05
3 *6:10 0.00547887
4 *6:10 *9:10 0
*RES
1 nvout_2 *6:10 47.1423 
2 *6:10 *11:spike_neg 4.905 
*END

*D_NET *8 0.0102953
*CONN
*P vout_1 O
*I *10:spike I *D neurona_lvs
*CAP
1 vout_1 0.00514765
2 *10:spike 0
3 *8:14 0.00514765
*RES
1 vout_1 *8:14 46.26 
2 *8:14 *10:spike 4.5 
*END

*D_NET *9 0.0112173
*CONN
*P vout_2 O
*I *11:spike I *D neurona_lvs
*CAP
1 vout_2 0.00507634
2 *11:spike 0.000532318
3 *9:10 0.00560866
4 *6:10 *9:10 0
*RES
1 vout_2 *9:10 46.8 
2 *9:10 *11:spike 8.83446 
*END
