*SPEF "ieee 1481-1999"
*DESIGN "layer_output"
*DATE "00:33:42 Friday August 28, 2026"
*VENDOR "The OpenROAD Project"
*PROGRAM "OpenROAD"
*VERSION "26Q1-1024-gdcf36133a"
*DESIGN_FLOW "NAME_SCOPE LOCAL" "PIN_CAP NONE"
*DIVIDER /
*DELIMITER :
*BUS_DELIMITER []
*T_UNIT 1 NS
*C_UNIT 1 PF
*R_UNIT 1 OHM
*L_UNIT 1 HENRY

*NAME_MAP
*1 Iext1
*2 Iext2
*5 nvout_1
*6 nvout_2
*8 vout_1
*9 vout_2
*10 x1
*11 x2

*PORTS
Iext1 I
Iext2 I
nvout_1 O
nvout_2 O
vout_1 O
vout_2 O

*D_NET *1 0.0111958
*CONN
*P Iext1 I
*I *10:Iin I *D neurona_lvs
*CAP
1 Iext1 0.00551386
2 *10:Iin 8.40438e-05
3 *1:9 0.0055979
*RES
1 Iext1 *1:9 46.4432 
2 *1:9 *10:Iin 4.75909 
*END

*D_NET *2 0.0161302
*CONN
*P Iext2 I
*I *11:Iin I *D neurona_lvs
*CAP
1 Iext2 0.0060217
2 *11:Iin 0.000557021
3 *2:5 0.00657872
4 *11:Iin *11:spike_neg 0.00297271
*RES
1 Iext2 *2:5 46.665 
2 *2:5 *11:Iin 17.19 
*END

*D_NET *5 0.0226989
*CONN
*P nvout_1 O
*I *10:spike_neg I *D neurona_lvs
*CAP
1 nvout_1 0.00154147
2 *10:spike_neg 0.000232438
3 *5:23 0.00350241
4 *5:11 0.00481144
5 *5:23 *10:spike 0.0100272
6 *5:23 *11:spike 0.00258397
*RES
1 nvout_1 *5:11 21.915 
2 *5:11 *5:23 49.68 
3 *5:23 *10:spike_neg 2.08446 
*END

*D_NET *6 0.00997403
*CONN
*P nvout_2 O
*I *11:spike_neg I *D neurona_lvs
*CAP
1 nvout_2 0.00350066
2 *11:spike_neg 0.00350066
3 *11:Iin *11:spike_neg 0.00297271
*RES
1 nvout_2 *11:spike_neg 39.4345 
*END

*D_NET *8 0.0231009
*CONN
*P vout_1 O
*I *10:spike I *D neurona_lvs
*CAP
1 vout_1 0.0048052
2 *10:spike 0.00173168
3 *8:11 0.00653688
4 *5:23 *10:spike 0.0100272
*RES
1 vout_1 *8:11 46.395 
2 *8:11 *10:spike 25.515 
*END

*D_NET *9 0.00583264
*CONN
*P vout_2 O
*I *11:spike I *D neurona_lvs
*CAP
1 vout_2 0.00162434
2 *11:spike 0.00162434
3 *5:23 *11:spike 0.00258397
*RES
1 vout_2 *11:spike 24.0445 
*END
