*SPEF "ieee 1481-1999"
*DESIGN "layer_output"
*DATE "00:33:42 Friday August 28, 2026"
*VENDOR "The OpenROAD Project"
*PROGRAM "OpenROAD"
*VERSION "26Q1-1024-gdcf36133a"
*DESIGN_FLOW "NAME_SCOPE LOCAL" "PIN_CAP NONE"
*DIVIDER /
*DELIMITER :
*BUS_DELIMITER []
*T_UNIT 1 NS
*C_UNIT 1 PF
*R_UNIT 1 OHM
*L_UNIT 1 HENRY

*NAME_MAP
*1 Iext1
*2 Iext2
*5 nvout_1
*6 nvout_2
*8 vout_1
*9 vout_2
*10 x1
*11 x2

*PORTS
Iext1 I
Iext2 I
nvout_1 O
nvout_2 O
vout_1 O
vout_2 O

*D_NET *1 0.0118914
*CONN
*P Iext1 I
*I *10:Iin I *D neurona_lvs
*CAP
1 Iext1 0.00417786
2 *10:Iin 0.00176783
3 *1:7 0.0059457
*RES
1 Iext1 *1:7 40.12 
2 *1:7 *10:Iin 17.65 
*END

*D_NET *2 0.017395
*CONN
*P Iext2 I
*I *11:Iin I *D neurona_lvs
*CAP
1 Iext2 0.00640383
2 *11:Iin 0.00059055
3 *2:5 0.00699438
4 *11:Iin *11:spike_neg 0.00340624
*RES
1 Iext2 *2:5 53.924 
2 *2:5 *11:Iin 18.464 
*END

*D_NET *5 0.0251863
*CONN
*P nvout_1 O
*I *10:spike_neg I *D neurona_lvs
*CAP
1 nvout_1 0.00162024
2 *10:spike_neg 0.000690995
3 *5:17 0.00377121
4 *5:11 0.00470046
5 *10:spike_neg *10:spike 0.000867089
6 *5:17 *10:spike 0.0106249
7 *5:17 *11:spike 0.00291143
*RES
1 nvout_1 *5:11 23.924 
2 *5:11 *5:17 46.308 
3 *5:17 *10:spike_neg 12.1087 
*END

*D_NET *6 0.0108739
*CONN
*P nvout_2 O
*I *11:spike_neg I *D neurona_lvs
*CAP
1 nvout_2 0.00373381
2 *11:spike_neg 0.00373381
3 *11:Iin *11:spike_neg 0.00340624
*RES
1 nvout_2 *11:spike_neg 44.1687 
*END

*D_NET *8 0.025428
*CONN
*P vout_1 O
*I *10:spike I *D neurona_lvs
*CAP
1 vout_1 0.0051095
2 *10:spike 0.00185852
3 *8:9 0.00696802
4 *10:spike_neg *10:spike 0.000867089
5 *5:17 *10:spike 0.0106249
*RES
1 vout_1 *8:9 47.712 
2 *8:9 *10:spike 33.984 
*END

*D_NET *9 0.00645028
*CONN
*P vout_2 O
*I *11:spike I *D neurona_lvs
*CAP
1 vout_2 0.00176942
2 *11:spike 0.00176942
3 *5:17 *11:spike 0.00291143
*RES
1 vout_2 *11:spike 26.3847 
*END
